p wcnf 189 94 95 
1 -20 -75 0 
1 -35 57 0 
1 -39 -49 0 
1 169 -184 0 
1 -83 52 0 
1 55 109 0 
1 124 3 0 
1 113 144 0 
1 153 -139 0 
1 165 -11 0 
1 -189 -8 0 
1 -133 46 0 
1 50 -55 0 
1 121 88 0 
1 -167 87 0 
1 71 -176 0 
1 81 -15 0 
1 144 4 0 
1 -61 -20 0 
1 -181 19 0 
1 -71 -60 0 
1 -143 19 0 
1 -142 102 0 
1 128 -50 0 
1 135 30 0 
1 40 -179 0 
1 -99 -11 0 
1 52 6 0 
1 -187 -170 0 
1 126 -22 0 
1 67 -181 0 
1 139 -61 0 
1 75 3 0 
1 186 73 0 
1 119 32 0 
1 26 96 0 
1 -162 125 0 
1 -142 96 0 
1 181 -161 0 
1 -3 -106 0 
1 -106 -52 0 
1 -165 -64 0 
1 85 144 0 
1 70 118 0 
1 67 -36 0 
1 177 -10 0 
1 -51 160 0 
1 -90 -31 0 
1 -64 -134 0 
1 -118 89 0 
1 54 173 0 
1 168 16 0 
1 62 -116 0 
1 60 161 0 
1 -132 -46 0 
1 117 -76 0 
1 137 140 0 
1 -103 20 0 
1 -4 -35 0 
1 9 29 0 
1 -67 -155 0 
1 106 24 0 
1 -134 -118 0 
1 45 -35 0 
1 40 164 0 
1 -81 184 0 
1 130 -41 0 
1 37 -127 0 
1 -13 83 0 
1 -189 -46 0 
1 -132 140 0 
1 -139 48 0 
1 82 -162 0 
1 -155 -153 0 
1 -88 76 0 
1 108 -17 0 
1 -83 180 0 
1 -103 6 0 
1 5 -55 0 
1 144 128 0 
1 132 -19 0 
1 55 -46 0 
1 30 -176 0 
1 -148 -63 0 
1 -26 120 0 
1 122 40 0 
1 -54 -128 0 
1 23 66 0 
1 110 -183 0 
1 147 140 0 
1 22 -37 0 
1 -60 -122 0 
1 -10 102 0 
1 -69 -112 0 
